100 8
775 295
637 402
25 352
525 654
54 552
663 315
75 79
880 353
206 457
123 449
536 677
91 246
887 300
287 895
128 422
37 153
243 872
24 448
410 734
228 805
57 484
168 409
86 482
460 473
220 569
384 975
166 286
172 304
141 171
109 851
271 359
194 471
764 414
352 515
502 679
656 264
227 404
584 695
187 388
49 469
222 105
444 716
714 655
42 352
623 360
844 302
195 140
856 466
73 412
791 712
801 653
335 382
669 738
311 219
920 508
78 337
108 186
849 596
190 812
106 479
807 204
801 283
379 814
266 360
324 274
528 350
665 541
75 446
697 213
104 328
168 816
250 915
672 758
812 619
751 474
846 298
843 302
197 263
472 406
107 75
823 798
359 891
124 109
779 232
717 600
900 326
385 518
68 505
800 634
499 304
37 412
721 247
69 89
286 938
200 578
885 464
173 179
221 857
333 536
801 542
